data/mockup5.tsp
NAME : mockup5
COMMENT : 5 nodes in square
TYPE : TSP
DIMENSION : 5
EDGE_WEIGHT_TYPE : EUC_2D
NODE_COORD_SECTION
1 0 3
2 3 0
3 6 2
4 7 4
5 2 5
EOF
